NAME: CMT2_7
TYPE: CVRP
COMMENT: 835.26 - Cluster Nr.7
DIMENSION: 8
CAPACITY: 140
EDGE_WEIGHT_TYPE: EUC_2D
NODE_COORD_TYPE: TWOD_COORDS
NODE_COORD_SECTION: 
1 54 38
6 40 40
3 50 30
4 50 40
5 62 35
7 55 34
8 51 42
2 55 45
DEPOT_SECTION: 
6
-1
DEMAND_SECTION: 
7 17
8 27
3 21
2 16
6 0
4 19
1 19
5 12
EOF
